c Random generated cnf formula, satisfiable: true
p cnf 10 50
-5 4 -7 0
-10 -7 -6 0
-10 -1 9 0
-4 1 7 0
10 -2 -9 0
6 3 -8 0
8 -4 -1 0
1 9 10 0
3 -6 -10 0
7 5 1 0
4 3 2 0
-4 5 9 0
9 -10 8 0
-4 1 2 0
-9 8 -2 0
-6 -7 -10 0
-10 9 -3 0
1 2 -8 0
4 10 5 0
10 -1 -8 0
-2 8 4 0
8 -5 7 0
-8 9 -5 0
2 -7 -5 0
-10 -9 -6 0
-2 -8 -10 0
-2 8 -4 0
-7 10 1 0
6 -7 -5 0
-10 -5 9 0
-7 -3 9 0
-10 4 -2 0
-1 2 -8 0
-10 -2 -4 0
2 -5 -4 0
3 -6 2 0
4 10 -8 0
6 9 -7 0
-8 9 -2 0
-6 -2 -9 0
10 -1 2 0
10 -5 7 0
3 4 9 0
5 -2 1 0
1 -5 -8 0
9 2 8 0
3 5 1 0
-2 -7 5 0
5 7 -8 0
-4 -2 -3 0
